SCIP version 5.0.0 [precision: 8 byte] [memory: block] [mode: optimized] [LP solver: NONE] [GitHash: 3bbd232]
Copyright (C) 2002-2017 Konrad-Zuse-Zentrum fuer Informationstechnik Berlin (ZIB)

External codes: 
  Readline EditLine w  GNU library for command line editing (gnu.org/s/readline)
  CppAD 20160000.1     Algorithmic Differentiation of C++ algorithms developed by B. Bell (www.coin-or.org/CppAD)
  ZLIB 1.2.5           General purpose compression library by J. Gailly and M. Adler (zlib.net)
  GMP 6.1.2            GNU Multiple Precision Arithmetic Library developed by T. Granlund (gmplib.org)

user parameter file <scip.set> not found - using default parameters

read problem <../../Split_data/output/spectf/3/4_sample_spectf.logreg>
============

File name	:	../../Split_data/output/spectf/3/4_sample_spectf.logreg
Problem name 	:	4_sample_spectf
Number of data	:	213
Number of var	:	44
The given data has linear independence

[dim=1] time: 0.007942
[dim=2] time: 0.016189
[dim=3] time: 0.02387
[dim=4] time: 0.030579
[dim=5] time: 0.037462
[dim=6] time: 0.044019
[dim=7] time: 0.050203
[dim=8] time: 0.056166
[dim=9] time: 0.061939
[dim=10] time: 0.067818
[dim=11] time: 0.073606
[dim=12] time: 0.078994
[dim=13] Time of forward = 0.084556sec.
AIC: 125.218
k: 12

[dim=44] time: 0.032741
[dim=43] time: 0.046661
[dim=42] time: 0.060742
[dim=41] time: 0.082784
[dim=40] time: 0.101909
[dim=39] time: 0.117717
[dim=38] time: 0.133776
[dim=37] time: 0.148544
[dim=36] time: 0.159721
[dim=35] time: 0.172897
[dim=34] time: 0.188554
[dim=33] time: 0.202635
[dim=32] time: 0.215819
[dim=31] Time of backward = 0.226094sec.
AIC: 126.569
k: 32
